CapLotSizing_PM/src/Instancias/TCHSHT/12i18p6m/NBA06.OUT
 CG ITER, OVMR, OVMRUB =           1   64938.6015625   64938.5937500
 CG ITER, OVMR, OVMRUB =           2   64938.6015625   64938.5937500
 CG ITER, OVMR, OVMRUB =           3   64020.3046875   64020.2929688
 CG ITER, OVMR, OVMRUB =           4   64020.2929688   64020.2929688
 CG ITER, OVMR, OVMRUB =           5   64020.2929688   64020.2929688
 CG ITER, OVMR, OVMRUB =           6   64020.2929688   64020.2929688
 CG ITER, OVMR, OVMRUB =           7   62961.6796875   64020.2929688
 CG ITER, OVMR, OVMRUB =           8   64020.2929688   64020.2929688
 CG ITER, OVMR, OVMRUB =           9   64020.2851562   64020.2929688
 CG ITER, OVMR, OVMRUB =          10   63985.6250000   64020.2929688
 CG ITER, OVMR, OVMRUB =          11   62323.6406250   64020.2929688
 CG ITER, OVMR, OVMRUB =          12   62203.0390625   64020.2929688
 CG ITER, OVMR, OVMRUB =          13   60589.1484375   64020.2929688
 CG ITER, OVMR, OVMRUB =          14   58702.7578125   64020.2929688
 CG ITER, OVMR, OVMRUB =          15   57872.1757812   64020.2929688
 CG ITER, OVMR, OVMRUB =          16   57374.7617188   64020.2929688
 CG ITER, OVMR, OVMRUB =          17   57423.7539062   62840.8320312
 CG ITER, OVMR, OVMRUB =          18   57494.6171875   62840.8320312
 CG ITER, OVMR, OVMRUB =          19   57521.0429688   62292.1250000
 CG ITER, OVMR, OVMRUB =          20   57557.7070312   62292.1250000
 CG ITER, OVMR, OVMRUB =          21   57578.8281250   62292.1250000
 CG ITER, OVMR, OVMRUB =          22   57593.5898438   62292.1250000
 CG ITER, OVMR, OVMRUB =          23   57625.0195312   62219.1250000
 CG ITER, OVMR, OVMRUB =          24   57643.2539062   62219.1250000
 CG ITER, OVMR, OVMRUB =          25   57673.6875000   62054.7578125
 CG ITER, OVMR, OVMRUB =          26   57689.0429688   62054.7578125
 CG ITER, OVMR, OVMRUB =          27   57702.2265625   62054.7578125
 CG ITER, OVMR, OVMRUB =          28   57741.7343750   62054.7578125
 CG ITER, OVMR, OVMRUB =          29   57756.7539062   62054.7578125
 CG ITER, OVMR, OVMRUB =          30   57771.7578125   61974.0664062
 CG ITER, OVMR, OVMRUB =          31   57793.5664062   61974.0664062
 CG ITER, OVMR, OVMRUB =          32   57810.8437500   61974.0664062
 CG ITER, OVMR, OVMRUB =          33   57819.4023438   61974.0664062
 CG ITER, OVMR, OVMRUB =          34   57851.9960938   61755.1523438
 CG ITER, OVMR, OVMRUB =          35   57860.8750000   61755.1523438
 CG ITER, OVMR, OVMRUB =          36   57875.9960938   61755.1523438
 CG ITER, OVMR, OVMRUB =          37   57893.1562500   61755.1523438
 CG ITER, OVMR, OVMRUB =          38   57910.4531250   61755.1523438
 CG ITER, OVMR, OVMRUB =          39   57947.0976562   61755.1523438
 CG ITER, OVMR, OVMRUB =          40   57633.3906250   61755.1523438
 CG ITER, OVMR, OVMRUB =          41   56952.9921875   61755.1523438
 CG ITER, OVMR, OVMRUB =          42   57064.8750000   61755.1523438
 CG ITER, OVMR, OVMRUB =          43   57180.7460938   61755.1523438
 CG ITER, OVMR, OVMRUB =          44   57252.8164062   61755.1523438
 CG ITER, OVMR, OVMRUB =          45   57307.4960938   61755.1523438
 CG ITER, OVMR, OVMRUB =          46   57361.8867188   61755.1523438
 CG ITER, OVMR, OVMRUB =          47   57401.8750000   61755.1523438
 CG ITER, OVMR, OVMRUB =          48   57429.2109375   61755.1523438
 CG ITER, OVMR, OVMRUB =          49   57467.9765625   61755.1523438
 CG ITER, OVMR, OVMRUB =          50   57501.8632812   61755.1523438
 CG ITER, OVMR, OVMRUB =          51   57533.6132812   61755.1523438
 CG ITER, OVMR, OVMRUB =          52   57567.9453125   61755.1523438
 CG ITER, OVMR, OVMRUB =          53   57596.5898438   61755.1523438
 CG ITER, OVMR, OVMRUB =          54   57628.6406250   61755.1523438
 CG ITER, OVMR, OVMRUB =          55   57658.6328125   61755.1523438
 CG ITER, OVMR, OVMRUB =          56   57693.9726562   61755.1523438
 CG ITER, OVMR, OVMRUB =          57   57721.6015625   61755.1523438
 CG ITER, OVMR, OVMRUB =          58   57750.6796875   61755.1523438
 CG ITER, OVMR, OVMRUB =          59   57802.4882812   61755.1523438
 CG ITER, OVMR, OVMRUB =          60   57811.9531250   61755.1523438
 CG ITER, OVMR, OVMRUB =          61   57838.8125000   61755.1523438
 CG ITER, OVMR, OVMRUB =          62   57867.1523438   61755.1523438
 CG ITER, OVMR, OVMRUB =          63   57890.3632812   61755.1523438
 CG ITER, OVMR, OVMRUB =          64   57926.4179688   61755.1523438
 CG ITER, OVMR, OVMRUB =          65   57937.6718750   61755.1523438
 CG ITER, OVMR, OVMRUB =          66   57967.5468750   61755.1523438
 CG ITER, OVMR, OVMRUB =          67   57987.2734375   61755.1523438
 CG ITER, OVMR, OVMRUB =          68   58017.7500000   61755.1523438
 CG ITER, OVMR, OVMRUB =          69   57791.1367188   61755.1523438
 CG ITER, OVMR, OVMRUB =          70   57686.7304688   61755.1523438
 CG ITER, OVMR, OVMRUB =          71   57746.4375000   61755.1523438
 CG ITER, OVMR, OVMRUB =          72   57762.6132812   61664.8085938
 CG ITER, OVMR, OVMRUB =          73   57649.9960938   61664.8085938
 CG ITER, OVMR, OVMRUB =          74   57703.2500000   61664.8085938
 CG ITER, OVMR, OVMRUB =          75   57721.3242188   61664.8085938
 CG ITER, OVMR, OVMRUB =          76   57753.7070312   61664.8085938
 CG ITER, OVMR, OVMRUB =          77   57772.8085938   61664.8085938
 CG ITER, OVMR, OVMRUB =          78   57810.3007812   61664.8085938
 CG ITER, OVMR, OVMRUB =          79   57812.5820312   61664.8085938
 CG ITER, OVMR, OVMRUB =          80   57826.9765625   61664.8085938
 CG ITER, OVMR, OVMRUB =          81   57849.9687500   61664.8085938
 CG ITER, OVMR, OVMRUB =          82   57860.6718750   61664.8085938
 CG ITER, OVMR, OVMRUB =          83   57879.3125000   61664.8085938
 CG ITER, OVMR, OVMRUB =          84   57893.7070312   61664.8085938
 CG ITER, OVMR, OVMRUB =          85   57918.9609375   61664.8085938
 CG ITER, OVMR, OVMRUB =          86   57934.7421875   61664.8085938
 CG ITER, OVMR, OVMRUB =          87   57953.2148438   61664.8085938
 CG ITER, OVMR, OVMRUB =          88   57964.1328125   61453.5156250
 CG ITER, OVMR, OVMRUB =          89   57981.2070312   61453.5156250
 CG ITER, OVMR, OVMRUB =          90   58000.7695312   61453.5156250
 CG ITER, OVMR, OVMRUB =          91   58003.5742188   61453.5156250
 CG ITER, OVMR, OVMRUB =          92   58020.5117188   61453.5156250
 CG ITER, OVMR, OVMRUB =          93   58033.4492188   61453.5156250
 CG ITER, OVMR, OVMRUB =          94   58056.8164062   61453.5156250
 CG ITER, OVMR, OVMRUB =          95   58072.5039062   61453.5156250
 CG ITER, OVMR, OVMRUB =          96   58078.4453125   61453.5156250
 CG ITER, OVMR, OVMRUB =          97   58097.3007812   61453.5156250
 CG ITER, OVMR, OVMRUB =          98   58106.0429688   61453.5156250
 CG ITER, OVMR, OVMRUB =          99   58120.9960938   61453.5156250
 CG ITER, OVMR, OVMRUB =         100   58141.2890625   61453.5156250
 CG ITER, OVMR, OVMRUB =         101   58141.8125000   61453.5156250
 CG ITER, OVMR, OVMRUB =         102   58157.2070312   61453.5156250
 CG ITER, OVMR, OVMRUB =         103   58180.4921875   61453.5156250
 CG ITER, OVMR, OVMRUB =         104   58184.3750000   61453.5156250
 CG ITER, OVMR, OVMRUB =         105   58203.8710938   61453.5156250
 CG ITER, OVMR, OVMRUB =         106   58204.0195312   61453.5156250
 CG ITER, OVMR, OVMRUB =         107   58218.5703125   61453.5156250
 CG ITER, OVMR, OVMRUB =         108   58235.3515625   61042.6093750
 CG ITER, OVMR, OVMRUB =         109   58248.2226562   61042.6093750
 CG ITER, OVMR, OVMRUB =         110   58260.1835938   61042.6093750
 CG ITER, OVMR, OVMRUB =         111   58274.5195312   61042.6093750
 CG ITER, OVMR, OVMRUB =         112   58274.5195312   61042.6093750
OVLB =   58274.5195312 OVLUB =   61042.6093750 TIME =      26.3199997
